c A SAT instance generated from a 3-CNF formula that had 40 clauses and 10 variables
p cnf 10 40
5 8 -6 0
-9 -8 -4 0
-10 4 -8 0
10 -5 -2 0
-1 8 4 0
7 10 -4 0
8 -5 6 0
-6 8 -3 0
2 -5 3 0
-4 1 -10 0
-7 8 3 0
-2 -4 -6 0
-2 1 -4 0
-9 7 -10 0
1 3 -4 0
-7 1 4 0
7 -4 -3 0
-9 -2 -6 0
10 -2 3 0
3 7 -6 0
-6 -7 5 0
-5 -9 4 0
6 -1 -3 0
10 1 -4 0
10 -1 -6 0
3 6 1 0
5 7 -10 0
-2 4 8 0
-9 6 4 0
-2 -9 5 0
10 -3 -2 0
3 2 -1 0
2 -7 -4 0
-3 -6 -8 0
-4 7 1 0
4 7 -10 0
9 2 8 0
-4 2 -9 0
-3 5 7 0
5 3 4 0
